Minimize
 
Subject To
 c3: - tau_3 - 0.6722010265709464 q_dd_0 - 0.2686226814721784 q_dd_1
   - 0.1304670405331757 q_dd_2 + 1.496828553963613 q_dd_3
   + 0.2042133950288545 q_dd_4 - 0.032239605611196 q_dd_5
   + 5.6974481459327615e-04 q_dd_6 = 1.2390069986322514e+17
Bounds
 tau_3 >= -100
 q_dd_0 >= -697088.4987277744
 -infinity <= q_dd_3 <= 63720.7365424937
 -infinity <= q_dd_4 <= 62864.15266405635
 q_dd_5 >= -9878.247201250389
 -infinity <= q_dd_6 <= 0
End
